c Reduced graph for r10 generated by Cyril Grelier
p edge 150 1409
e 1 2
e 1 3
e 1 6
e 1 9
e 1 11
e 1 12
e 1 13
e 1 14
e 1 25
e 1 28
e 1 29
e 1 30
e 1 31
e 1 32
e 1 44
e 1 53
e 1 56
e 1 57
e 1 63
e 1 81
e 1 88
e 1 109
e 1 115
e 2 3
e 2 4
e 2 7
e 2 10
e 2 11
e 2 12
e 2 13
e 2 26
e 2 28
e 2 29
e 2 30
e 2 31
e 2 32
e 2 45
e 2 54
e 2 56
e 2 57
e 2 64
e 2 82
e 2 89
e 2 116
e 2 122
e 3 5
e 3 8
e 3 11
e 3 12
e 3 13
e 3 15
e 3 27
e 3 28
e 3 29
e 3 30
e 3 31
e 3 32
e 3 55
e 3 56
e 3 57
e 3 65
e 3 76
e 3 83
e 3 90
e 3 117
e 3 123
e 4 5
e 4 7
e 4 10
e 4 16
e 4 17
e 4 18
e 4 26
e 4 36
e 4 37
e 4 38
e 4 39
e 4 45
e 4 54
e 4 64
e 4 66
e 4 67
e 4 82
e 4 89
e 4 104
e 4 116
e 4 120
e 4 122
e 5 8
e 5 15
e 5 16
e 5 17
e 5 18
e 5 27
e 5 36
e 5 37
e 5 38
e 5 39
e 5 55
e 5 65
e 5 66
e 5 67
e 5 76
e 5 83
e 5 90
e 5 104
e 5 117
e 5 120
e 5 123
e 6 7
e 6 8
e 6 9
e 6 14
e 6 19
e 6 20
e 6 21
e 6 25
e 6 40
e 6 41
e 6 42
e 6 43
e 6 44
e 6 53
e 6 63
e 6 68
e 6 69
e 6 81
e 6 88
e 6 105
e 6 109
e 6 115
e 7 8
e 7 10
e 7 19
e 7 20
e 7 21
e 7 26
e 7 40
e 7 41
e 7 42
e 7 43
e 7 45
e 7 54
e 7 64
e 7 68
e 7 69
e 7 82
e 7 89
e 7 105
e 7 116
e 7 122
e 8 15
e 8 19
e 8 20
e 8 21
e 8 27
e 8 40
e 8 41
e 8 42
e 8 43
e 8 55
e 8 65
e 8 68
e 8 69
e 8 76
e 8 83
e 8 90
e 8 105
e 8 117
e 8 123
e 9 10
e 9 14
e 9 22
e 9 23
e 9 24
e 9 25
e 9 44
e 9 46
e 9 47
e 9 48
e 9 49
e 9 50
e 9 53
e 9 63
e 9 73
e 9 81
e 9 88
e 9 109
e 9 110
e 9 115
e 10 22
e 10 23
e 10 24
e 10 26
e 10 45
e 10 46
e 10 47
e 10 48
e 10 49
e 10 50
e 10 54
e 10 64
e 10 73
e 10 82
e 10 89
e 10 110
e 10 116
e 10 122
e 11 12
e 11 13
e 11 16
e 11 19
e 11 22
e 11 28
e 11 29
e 11 30
e 11 31
e 11 32
e 11 33
e 11 56
e 11 57
e 11 70
e 11 77
e 11 93
e 11 103
e 11 107
e 11 128
e 12 13
e 12 17
e 12 20
e 12 23
e 12 28
e 12 29
e 12 30
e 12 31
e 12 32
e 12 34
e 12 51
e 12 56
e 12 57
e 12 71
e 12 79
e 12 94
e 12 108
e 12 124
e 13 18
e 13 21
e 13 24
e 13 28
e 13 29
e 13 30
e 13 31
e 13 32
e 13 35
e 13 52
e 13 56
e 13 57
e 13 72
e 13 80
e 13 95
e 13 129
e 13 134
e 14 15
e 14 25
e 14 33
e 14 34
e 14 35
e 14 44
e 14 53
e 14 58
e 14 59
e 14 60
e 14 61
e 14 62
e 14 63
e 14 78
e 14 81
e 14 88
e 14 109
e 14 115
e 14 127
e 15 27
e 15 33
e 15 34
e 15 35
e 15 55
e 15 58
e 15 59
e 15 60
e 15 61
e 15 62
e 15 65
e 15 76
e 15 78
e 15 83
e 15 90
e 15 117
e 15 123
e 15 127
e 16 17
e 16 18
e 16 19
e 16 22
e 16 33
e 16 36
e 16 37
e 16 38
e 16 39
e 16 66
e 16 67
e 16 70
e 16 77
e 16 93
e 16 103
e 16 104
e 16 107
e 16 120
e 16 128
e 17 18
e 17 20
e 17 23
e 17 34
e 17 36
e 17 37
e 17 38
e 17 39
e 17 51
e 17 66
e 17 67
e 17 71
e 17 79
e 17 94
e 17 104
e 17 108
e 17 120
e 17 124
e 18 21
e 18 24
e 18 35
e 18 36
e 18 37
e 18 38
e 18 39
e 18 52
e 18 66
e 18 67
e 18 72
e 18 80
e 18 95
e 18 104
e 18 120
e 18 129
e 18 134
e 19 20
e 19 21
e 19 22
e 19 33
e 19 40
e 19 41
e 19 42
e 19 43
e 19 68
e 19 69
e 19 70
e 19 77
e 19 93
e 19 103
e 19 105
e 19 107
e 19 128
e 20 21
e 20 23
e 20 34
e 20 40
e 20 41
e 20 42
e 20 43
e 20 51
e 20 68
e 20 69
e 20 71
e 20 79
e 20 94
e 20 105
e 20 108
e 20 124
e 21 24
e 21 35
e 21 40
e 21 41
e 21 42
e 21 43
e 21 52
e 21 68
e 21 69
e 21 72
e 21 80
e 21 95
e 21 105
e 21 129
e 21 134
e 22 23
e 22 24
e 22 33
e 22 46
e 22 47
e 22 48
e 22 49
e 22 50
e 22 70
e 22 73
e 22 77
e 22 93
e 22 103
e 22 107
e 22 110
e 22 128
e 23 24
e 23 34
e 23 46
e 23 47
e 23 48
e 23 49
e 23 50
e 23 51
e 23 71
e 23 73
e 23 79
e 23 94
e 23 108
e 23 110
e 23 124
e 24 35
e 24 46
e 24 47
e 24 48
e 24 49
e 24 50
e 24 52
e 24 72
e 24 73
e 24 80
e 24 95
e 24 110
e 24 129
e 24 134
e 25 26
e 25 27
e 25 44
e 25 51
e 25 52
e 25 53
e 25 63
e 25 74
e 25 75
e 25 81
e 25 88
e 25 91
e 25 92
e 25 109
e 25 115
e 25 125
e 25 139
e 26 27
e 26 45
e 26 51
e 26 52
e 26 54
e 26 64
e 26 74
e 26 75
e 26 82
e 26 89
e 26 91
e 26 92
e 26 116
e 26 122
e 26 125
e 26 139
e 27 51
e 27 52
e 27 55
e 27 65
e 27 74
e 27 75
e 27 76
e 27 83
e 27 90
e 27 91
e 27 92
e 27 117
e 27 123
e 27 125
e 27 139
e 28 29
e 28 30
e 28 31
e 28 32
e 28 36
e 28 40
e 28 46
e 28 56
e 28 57
e 28 58
e 28 74
e 28 96
e 28 101
e 28 111
e 28 135
e 29 30
e 29 31
e 29 32
e 29 37
e 29 47
e 29 56
e 29 57
e 29 59
e 29 84
e 29 97
e 29 102
e 29 112
e 29 121
e 29 136
e 30 31
e 30 32
e 30 38
e 30 41
e 30 48
e 30 56
e 30 57
e 30 60
e 30 85
e 30 98
e 30 113
e 30 119
e 30 141
e 31 32
e 31 39
e 31 42
e 31 49
e 31 56
e 31 57
e 31 61
e 31 86
e 31 99
e 31 114
e 31 137
e 31 144
e 32 43
e 32 50
e 32 56
e 32 57
e 32 62
e 32 75
e 32 87
e 32 100
e 32 138
e 32 142
e 32 145
e 33 34
e 33 35
e 33 58
e 33 59
e 33 60
e 33 61
e 33 62
e 33 70
e 33 77
e 33 78
e 33 93
e 33 103
e 33 107
e 33 127
e 33 128
e 34 35
e 34 51
e 34 58
e 34 59
e 34 60
e 34 61
e 34 62
e 34 71
e 34 78
e 34 79
e 34 94
e 34 108
e 34 124
e 34 127
e 35 52
e 35 58
e 35 59
e 35 60
e 35 61
e 35 62
e 35 72
e 35 78
e 35 80
e 35 95
e 35 127
e 35 129
e 35 134
e 36 37
e 36 38
e 36 39
e 36 40
e 36 46
e 36 58
e 36 66
e 36 67
e 36 74
e 36 96
e 36 101
e 36 104
e 36 111
e 36 120
e 36 135
e 37 38
e 37 39
e 37 47
e 37 59
e 37 66
e 37 67
e 37 84
e 37 97
e 37 102
e 37 104
e 37 112
e 37 120
e 37 121
e 37 136
e 38 39
e 38 41
e 38 48
e 38 60
e 38 66
e 38 67
e 38 85
e 38 98
e 38 104
e 38 113
e 38 119
e 38 120
e 38 141
e 39 42
e 39 49
e 39 61
e 39 66
e 39 67
e 39 86
e 39 99
e 39 104
e 39 114
e 39 120
e 39 137
e 39 144
e 40 41
e 40 42
e 40 43
e 40 46
e 40 58
e 40 68
e 40 69
e 40 74
e 40 96
e 40 101
e 40 105
e 40 111
e 40 135
e 41 42
e 41 43
e 41 48
e 41 60
e 41 68
e 41 69
e 41 85
e 41 98
e 41 105
e 41 113
e 41 119
e 41 141
e 42 43
e 42 49
e 42 61
e 42 68
e 42 69
e 42 86
e 42 99
e 42 105
e 42 114
e 42 137
e 42 144
e 43 50
e 43 62
e 43 68
e 43 69
e 43 75
e 43 87
e 43 100
e 43 105
e 43 138
e 43 142
e 43 145
e 44 45
e 44 53
e 44 63
e 44 70
e 44 71
e 44 72
e 44 81
e 44 84
e 44 85
e 44 86
e 44 87
e 44 88
e 44 106
e 44 109
e 44 115
e 45 54
e 45 64
e 45 70
e 45 71
e 45 72
e 45 82
e 45 84
e 45 85
e 45 86
e 45 87
e 45 89
e 45 106
e 45 116
e 45 122
e 46 47
e 46 48
e 46 49
e 46 50
e 46 58
e 46 73
e 46 74
e 46 96
e 46 101
e 46 110
e 46 111
e 46 135
e 47 48
e 47 49
e 47 50
e 47 59
e 47 73
e 47 84
e 47 97
e 47 102
e 47 110
e 47 112
e 47 121
e 47 136
e 48 49
e 48 50
e 48 60
e 48 73
e 48 85
e 48 98
e 48 110
e 48 113
e 48 119
e 48 141
e 49 50
e 49 61
e 49 73
e 49 86
e 49 99
e 49 110
e 49 114
e 49 137
e 49 144
e 50 62
e 50 73
e 50 75
e 50 87
e 50 100
e 50 110
e 50 138
e 50 142
e 50 145
e 51 52
e 51 71
e 51 74
e 51 75
e 51 79
e 51 91
e 51 92
e 51 94
e 51 108
e 51 124
e 51 125
e 51 139
e 52 72
e 52 74
e 52 75
e 52 80
e 52 91
e 52 92
e 52 95
e 52 125
e 52 129
e 52 134
e 52 139
e 53 54
e 53 55
e 53 63
e 53 77
e 53 81
e 53 88
e 53 96
e 53 97
e 53 98
e 53 99
e 53 100
e 53 109
e 53 115
e 53 140
e 54 55
e 54 64
e 54 77
e 54 82
e 54 89
e 54 96
e 54 97
e 54 98
e 54 99
e 54 100
e 54 116
e 54 122
e 54 140
e 55 65
e 55 76
e 55 77
e 55 83
e 55 90
e 55 96
e 55 97
e 55 98
e 55 99
e 55 100
e 55 117
e 55 123
e 55 140
e 56 57
e 56 66
e 56 68
e 56 78
e 56 91
e 56 106
e 56 118
e 56 130
e 56 132
e 57 67
e 57 69
e 57 73
e 57 92
e 57 126
e 57 131
e 57 133
e 57 148
e 58 59
e 58 60
e 58 61
e 58 62
e 58 74
e 58 78
e 58 96
e 58 101
e 58 111
e 58 127
e 58 135
e 59 60
e 59 61
e 59 62
e 59 78
e 59 84
e 59 97
e 59 102
e 59 112
e 59 121
e 59 127
e 59 136
e 60 61
e 60 62
e 60 78
e 60 85
e 60 98
e 60 113
e 60 119
e 60 127
e 60 141
e 61 62
e 61 78
e 61 86
e 61 99
e 61 114
e 61 127
e 61 137
e 61 144
e 62 75
e 62 78
e 62 87
e 62 100
e 62 127
e 62 138
e 62 142
e 62 145
e 63 64
e 63 65
e 63 79
e 63 80
e 63 81
e 63 88
e 63 101
e 63 102
e 63 109
e 63 115
e 63 118
e 63 143
e 63 146
e 64 65
e 64 79
e 64 80
e 64 82
e 64 89
e 64 101
e 64 102
e 64 116
e 64 118
e 64 122
e 64 143
e 64 146
e 65 76
e 65 79
e 65 80
e 65 83
e 65 90
e 65 101
e 65 102
e 65 117
e 65 118
e 65 123
e 65 143
e 65 146
e 66 67
e 66 68
e 66 78
e 66 91
e 66 104
e 66 106
e 66 118
e 66 120
e 66 130
e 66 132
e 67 69
e 67 73
e 67 92
e 67 104
e 67 120
e 67 126
e 67 131
e 67 133
e 67 148
e 68 69
e 68 78
e 68 91
e 68 105
e 68 106
e 68 118
e 68 130
e 68 132
e 69 73
e 69 92
e 69 105
e 69 126
e 69 131
e 69 133
e 69 148
e 70 71
e 70 72
e 70 77
e 70 84
e 70 85
e 70 86
e 70 87
e 70 93
e 70 103
e 70 106
e 70 107
e 70 128
e 71 72
e 71 79
e 71 84
e 71 85
e 71 86
e 71 87
e 71 94
e 71 106
e 71 108
e 71 124
e 72 80
e 72 84
e 72 85
e 72 86
e 72 87
e 72 95
e 72 106
e 72 129
e 72 134
e 73 92
e 73 110
e 73 126
e 73 131
e 73 133
e 73 148
e 74 75
e 74 91
e 74 92
e 74 96
e 74 101
e 74 111
e 74 125
e 74 135
e 74 139
e 75 87
e 75 91
e 75 92
e 75 100
e 75 125
e 75 138
e 75 139
e 75 142
e 75 145
e 76 83
e 76 90
e 76 93
e 76 94
e 76 95
e 76 111
e 76 112
e 76 113
e 76 114
e 76 117
e 76 123
e 76 126
e 77 93
e 77 96
e 77 97
e 77 98
e 77 99
e 77 100
e 77 103
e 77 107
e 77 128
e 77 140
e 78 91
e 78 106
e 78 118
e 78 127
e 78 130
e 78 132
e 79 80
e 79 94
e 79 101
e 79 102
e 79 108
e 79 118
e 79 124
e 79 143
e 79 146
e 80 95
e 80 101
e 80 102
e 80 118
e 80 129
e 80 134
e 80 143
e 80 146
e 81 82
e 81 83
e 81 88
e 81 103
e 81 109
e 81 115
e 81 119
e 81 130
e 81 131
e 81 147
e 81 149
e 82 83
e 82 89
e 82 103
e 82 116
e 82 119
e 82 122
e 82 130
e 82 131
e 82 147
e 82 149
e 83 90
e 83 103
e 83 117
e 83 119
e 83 123
e 83 130
e 83 131
e 83 147
e 83 149
e 84 85
e 84 86
e 84 87
e 84 97
e 84 102
e 84 106
e 84 112
e 84 121
e 84 136
e 85 86
e 85 87
e 85 98
e 85 106
e 85 113
e 85 119
e 85 141
e 86 87
e 86 99
e 86 106
e 86 114
e 86 137
e 86 144
e 87 100
e 87 106
e 87 138
e 87 142
e 87 145
e 88 89
e 88 90
e 88 107
e 88 108
e 88 109
e 88 115
e 88 121
e 88 132
e 88 133
e 89 90
e 89 107
e 89 108
e 89 116
e 89 121
e 89 122
e 89 132
e 89 133
e 90 107
e 90 108
e 90 117
e 90 121
e 90 123
e 90 132
e 90 133
e 91 92
e 91 106
e 91 118
e 91 125
e 91 130
e 91 132
e 91 139
e 92 125
e 92 126
e 92 131
e 92 133
e 92 139
e 92 148
e 93 94
e 93 95
e 93 103
e 93 107
e 93 111
e 93 112
e 93 113
e 93 114
e 93 126
e 93 128
e 94 95
e 94 108
e 94 111
e 94 112
e 94 113
e 94 114
e 94 124
e 94 126
e 95 111
e 95 112
e 95 113
e 95 114
e 95 126
e 95 129
e 95 134
e 96 97
e 96 98
e 96 99
e 96 100
e 96 101
e 96 111
e 96 135
e 96 140
e 97 98
e 97 99
e 97 100
e 97 102
e 97 112
e 97 121
e 97 136
e 97 140
e 98 99
e 98 100
e 98 113
e 98 119
e 98 140
e 98 141
e 99 100
e 99 114
e 99 137
e 99 140
e 99 144
e 100 138
e 100 140
e 100 142
e 100 145
e 101 102
e 101 111
e 101 118
e 101 135
e 101 143
e 101 146
e 102 112
e 102 118
e 102 121
e 102 136
e 102 143
e 102 146
e 103 107
e 103 119
e 103 128
e 103 130
e 103 131
e 103 147
e 103 149
e 104 105
e 104 110
e 104 120
e 104 125
e 104 140
e 104 143
e 104 147
e 105 110
e 105 125
e 105 140
e 105 143
e 105 147
e 106 118
e 106 130
e 106 132
e 107 108
e 107 121
e 107 128
e 107 132
e 107 133
e 108 121
e 108 124
e 108 132
e 108 133
e 109 115
e 109 124
e 109 135
e 109 136
e 109 137
e 109 138
e 109 150
e 110 125
e 110 140
e 110 143
e 110 147
e 111 112
e 111 113
e 111 114
e 111 126
e 111 135
e 112 113
e 112 114
e 112 121
e 112 126
e 112 136
e 113 114
e 113 119
e 113 126
e 113 141
e 114 126
e 114 137
e 114 144
e 115 116
e 115 117
e 115 128
e 115 129
e 115 141
e 115 142
e 116 117
e 116 122
e 116 128
e 116 129
e 116 141
e 116 142
e 117 123
e 117 128
e 117 129
e 117 141
e 117 142
e 118 130
e 118 132
e 118 143
e 118 146
e 119 130
e 119 131
e 119 141
e 119 147
e 119 149
e 120 127
e 120 139
e 120 146
e 120 149
e 120 150
e 121 132
e 121 133
e 121 136
e 122 123
e 122 134
e 122 144
e 122 145
e 122 148
e 123 134
e 123 144
e 123 145
e 123 148
e 124 135
e 124 136
e 124 137
e 124 138
e 124 150
e 125 139
e 125 140
e 125 143
e 125 147
e 126 131
e 126 133
e 126 148
e 127 139
e 127 146
e 127 149
e 127 150
e 128 129
e 128 141
e 128 142
e 129 134
e 129 141
e 129 142
e 130 131
e 130 132
e 130 147
e 130 149
e 131 133
e 131 147
e 131 148
e 131 149
e 132 133
e 133 148
e 134 144
e 134 145
e 134 148
e 135 136
e 135 137
e 135 138
e 135 150
e 136 137
e 136 138
e 136 150
e 137 138
e 137 144
e 137 150
e 138 142
e 138 145
e 138 150
e 139 146
e 139 149
e 139 150
e 140 143
e 140 147
e 141 142
e 142 145
e 143 146
e 143 147
e 144 145
e 144 148
e 145 148
e 146 149
e 146 150
e 147 149
e 149 150
